c 2 __LINUXTHREADS_OLD__
c 6 __UCLIBC_HAS_IPV6__
c 1 __UCLIBC_HAS_THREADS_NATIVE__
c 4 __UCLIBC_HAS_SOCKET__
c 7 __UCLIBC_HAS_IPV4__
c 5 __LINUXTHREADS_NEW__
c 3 __UCLIBC_HAS_THREADS__
p cnf 7 3
1 2 -4 -3 5 1
-6 1 2 -3 5 1
-7 1 2 -3 5 1
